8
2147483647 90 35 24 67 3 12 67 
90 2147483647 81 81 71 67 58 62 
35 81 2147483647 28 70 32 34 29 
24 81 28 2147483647 96 3 16 84 
67 71 70 96 2147483647 42 20 99 
3 67 32 3 42 2147483647 93 23 
12 58 34 16 20 93 2147483647 47 
67 62 29 84 99 23 47 2147483647 
